c 
c G(k,n,p) graph
c graph gen seed     : 62782
c number of vertices : 50
c max number of edges: 625
c number of classes  : 2
c edge density       : 0.100000
c edge probability   : 0.200000
c data structure     : sparse
c
c           Graph Stats
c number of vertices  : 50
c nonisolated vertices: 50
c number of edges     : 148
c edge density        : 0.120816
c max degree          : 9
c avg degree          : 5.92
c min degree          : 3
p col 50 148
e 1 21
e 1 13
e 1 11
e 1 9
e 1 7
e 2 39
e 2 31
e 2 26
e 2 19
e 2 16
e 2 14
e 2 10
e 3 34
e 3 26
e 3 24
e 3 14
e 3 10
e 3 9
e 4 38
e 4 24
e 4 19
e 4 15
e 4 14
e 4 11
e 4 7
e 5 42
e 5 40
e 5 30
e 5 20
e 5 8
e 6 47
e 6 39
e 6 21
e 7 45
e 7 44
e 7 20
e 7 18
e 7 12
e 8 47
e 8 34
e 8 23
e 8 19
e 8 17
e 8 15
e 8 13
e 9 46
e 9 25
e 9 20
e 10 46
e 10 25
e 10 18
e 11 46
e 11 44
e 11 42
e 11 35
e 11 33
e 11 28
e 12 47
e 12 37
e 12 31
e 12 26
e 12 21
e 12 19
e 12 17
e 13 50
e 13 42
e 13 40
e 13 32
e 13 29
e 13 25
e 13 20
e 14 46
e 14 32
e 14 29
e 14 27
e 15 40
e 15 32
e 15 29
e 16 35
e 16 33
e 16 32
e 16 28
e 17 50
e 17 44
e 17 29
e 17 22
e 17 20
e 18 48
e 18 39
e 18 34
e 18 31
e 18 24
e 19 50
e 19 45
e 19 27
e 19 25
e 20 47
e 20 38
e 20 21
e 21 44
e 21 35
e 21 32
e 21 25
e 22 48
e 22 38
e 22 37
e 23 45
e 23 32
e 24 46
e 24 32
e 25 48
e 25 41
e 25 37
e 26 40
e 27 39
e 27 36
e 27 31
e 28 48
e 29 36
e 29 31
e 30 47
e 30 38
e 30 37
e 31 50
e 31 43
e 31 33
e 32 36
e 32 34
e 33 36
e 34 43
e 34 35
e 35 41
e 35 39
e 36 49
e 36 46
e 36 42
e 37 49
e 37 45
e 37 42
e 38 42
e 39 44
e 39 42
e 41 49
e 41 45
e 41 43
e 44 48
e 47 50
e 48 49
